6 40 4 10
19 4 1 4 15 2 19 19 11 9 6 16 6 17 15 14 17 3 10 18 3 17 1 2 16 2 8 5 15 1 15 11 14 7 4 11 8 6 16 10 
9.43 2.88 3.21 10.91 4.72 6.7 10.78 3.45 1.99 0.57 12.1 15.87 4.11 5.34 7.62 10.07 6.21 0.45 4 11.03 2.27 15.95 14.69 4.4 4.29 7.55 12.03 13.5 14.21 2.88 0.5 10.9 10.07 10.97 0.43 7.32 14.75 12.74 10.19 10.62 
5.29 15.44 12.84 1.29 15.93 14.22 5.13 14.5 6.68 1.89 3.56 12.35 5.91 6.58 7.98 9.78 3.96 3.64 11.8 7.47 4.04 7.87 6.25 14.13 7.13 13.24 1.29 10.12 4.38 0.47 15.09 10.53 5.64 12.17 5.46 15.92 2.44 6.64 11.21 13.75 
6.12 0.71 6.84 4.79 1.28 15.78 15.53 12.41 8.27 7.53 2.07 15.5 9.65 5.52 9.88 2.25 13.8 11.68 8.88 4.04 3.38 15.15 8.6 0.93 9.09 3.69 7.52 5.26 6.94 10.89 4.11 6.22 10.8 14.28 5.29 12.41 0.22 2.24 0.42 12.55 
4.59 4.03 12.12 13.32 0.04 10.97 10.01 11.15 9.76 14.08 3.42 10.36 6.9 7.96 6.71 11.04 9.34 10.71 7.99 10.82 5.77 9.75 8.31 12.77 6.52 4.12 10.02 12.25 1.63 10.65 7.05 15.26 8.46 13.31 15.61 12.84 12.4 8.43 15.88 10.12 
8 8 8 8 8 8 8 8 8 8 8 8 8 8 8 8 8 8 8 8 8 8 8 8 8 8 8 8 8 8 8 8 8 8 8 8 8 8 8 8 
1.98 4.76 14.57 11.98 5.54 1.17 2.4 7.6 9.29 9.51 1.04 4.17 13.5 10.38 3.12 2.99 11.81 4.93 5.73 9.26 5.53 7.26 6.85 9.1 8.78 6.56 3.9 4.17 4.95 0.1 1.52 2.2 6.37 10.16 11.38 8.81 11.3 4.07 3.65 4.29 
1 1 1 1 1 1 1 1 1 1 1 1 1 1 1 1 1 1 1 1 1 1 1 1 1 1 1 1 1 1 1 1 1 1 1 1 1 1 1 1 
1 1 1 1 1 1 1 1 1 1 1 1 1 1 1 1 1 1 1 1 1 1 1 1 1 1 1 1 1 1 1 1 1 1 1 1 1 1 1 1 
1 1 1 1 1 1 1 1 1 1 1 1 1 1 1 1 1 1 1 1 1 1 1 1 1 1 1 1 1 1 1 1 1 1 1 1 1 1 1 1 
1 1 1 1 1 1 1 1 1 1 1 1 1 1 1 1 1 1 1 1 1 1 1 1 1 1 1 1 1 1 1 1 1 1 1 1 1 1 1 1 
1 1 1 1 1 1 1 1 1 1 1 1 1 1 1 1 1 1 1 1 1 1 1 1 1 1 1 1 1 1 1 1 1 1 1 1 1 1 1 1 
1 1 1 1 1 1 1 1 1 1 1 1 1 1 1 1 1 1 1 1 1 1 1 1 1 1 1 1 1 1 1 1 1 1 1 1 1 1 1 1 
0.01 0.01 0.01 0.01 0.01 0.01 0.01 0.01 0.01 0.01 0.01 0.01 0.01 0.01 0.01 0.01 0.01 0.01 0.01 0.01 0.01 0.01 0.01 0.01 0.01 0.01 0.01 0.01 0.01 0.01 0.01 0.01 0.01 0.01 0.01 0.01 0.01 0.01 0.01 0.01 
0.02 0.02 0.02 0.02 0.02 0.02 0.02 0.02 0.02 0.02 0.02 0.02 0.02 0.02 0.02 0.02 0.02 0.02 0.02 0.02 0.02 0.02 0.02 0.02 0.02 0.02 0.02 0.02 0.02 0.02 0.02 0.02 0.02 0.02 0.02 0.02 0.02 0.02 0.02 0.02 
0.03 0.03 0.03 0.03 0.03 0.03 0.03 0.03 0.03 0.03 0.03 0.03 0.03 0.03 0.03 0.03 0.03 0.03 0.03 0.03 0.03 0.03 0.03 0.03 0.03 0.03 0.03 0.03 0.03 0.03 0.03 0.03 0.03 0.03 0.03 0.03 0.03 0.03 0.03 0.03 
0.04 0.04 0.04 0.04 0.04 0.04 0.04 0.04 0.04 0.04 0.04 0.04 0.04 0.04 0.04 0.04 0.04 0.04 0.04 0.04 0.04 0.04 0.04 0.04 0.04 0.04 0.04 0.04 0.04 0.04 0.04 0.04 0.04 0.04 0.04 0.04 0.04 0.04 0.04 0.04 
0.05 0.05 0.05 0.05 0.05 0.05 0.05 0.05 0.05 0.05 0.05 0.05 0.05 0.05 0.05 0.05 0.05 0.05 0.05 0.05 0.05 0.05 0.05 0.05 0.05 0.05 0.05 0.05 0.05 0.05 0.05 0.05 0.05 0.05 0.05 0.05 0.05 0.05 0.05 0.05 
1 1 1 1 1 1 1 1 1 1 1 1 1 1 1 1 1 1 1 1 1 1 1 1 1 1 1 1 1 1 1 1 1 1 1 1 1 1 1 1 
